c Generated map
c Size: 9 * 9, weights in range: 1 to 10, walls: True, with ratio 0.05
c dim 5 of 7
c
p sp 81 130
c graph contains 81 nodes and 130 arcs
c
a 1 10 7
a 10 1 7
a 1 2 7
a 2 1 7
a 2 11 10
a 11 2 10
a 2 3 10
a 3 2 10
a 3 12 5
a 12 3 5
a 3 4 8
a 4 3 8
a 4 13 10
a 13 4 10
a 6 15 2
a 15 6 2
a 6 7 10
a 7 6 10
a 7 16 4
a 16 7 4
a 7 8 4
a 8 7 4
a 8 17 1
a 17 8 1
a 8 9 3
a 9 8 3
a 9 18 7
a 18 9 7
a 10 19 3
a 19 10 3
a 10 11 5
a 11 10 5
a 11 20 4
a 20 11 4
a 11 12 7
a 12 11 7
a 12 21 3
a 21 12 3
a 12 13 7
a 13 12 7
a 13 22 5
a 22 13 5
a 13 14 9
a 14 13 9
a 14 23 1
a 23 14 1
a 14 15 9
a 15 14 9
a 15 24 7
a 24 15 7
a 15 16 6
a 16 15 6
a 16 25 6
a 25 16 6
a 16 17 5
a 17 16 5
a 17 26 8
a 26 17 8
a 17 18 2
a 18 17 2
a 18 27 5
a 27 18 5
a 19 28 2
a 28 19 2
a 19 20 8
a 20 19 8
a 20 29 9
a 29 20 9
a 20 21 9
a 21 20 9
a 21 22 9
a 22 21 9
a 22 31 7
a 31 22 7
a 22 23 6
a 23 22 6
a 23 32 9
a 32 23 9
a 23 24 6
a 24 23 6
a 24 33 3
a 33 24 3
a 24 25 3
a 25 24 3
a 25 34 7
a 34 25 7
a 25 26 1
a 26 25 1
a 26 35 10
a 35 26 10
a 26 27 10
a 27 26 10
a 27 36 3
a 36 27 3
a 28 29 2
a 29 28 2
a 29 38 5
a 38 29 5
a 31 40 8
a 40 31 8
a 31 32 2
a 32 31 2
a 32 41 9
a 41 32 9
a 32 33 10
a 33 32 10
a 33 42 5
a 42 33 5
a 33 34 8
a 34 33 8
a 34 43 5
a 43 34 5
a 34 35 6
a 35 34 6
a 35 44 2
a 44 35 2
a 35 36 2
a 36 35 2
a 36 45 9
a 45 36 9
a 38 47 7
a 47 38 7
a 38 39 7
a 39 38 7
a 39 40 7
a 40 39 7
a 40 49 3
a 49 40 3
a 40 41 8
a 41 40 8
a 41 50 2
a 50 41 2
a 41 42 7
a 42 41 7
a 42 51 4
a 51 42 4
a 42 43 2
a 43 42 2
a 43 52 2
a 52 43 2
a 43 44 10
a 44 43 10
a 44 53 3
a 53 44 3
a 44 45 4
a 45 44 4
a 45 54 1
a 54 45 1
a 46 55 8
a 55 46 8
a 46 47 1
a 47 46 1
a 47 56 9
a 56 47 9
a 49 58 9
a 58 49 9
a 49 50 8
a 50 49 8
a 50 59 3
a 59 50 3
a 50 51 2
a 51 50 2
a 51 60 9
a 60 51 9
a 51 52 9
a 52 51 9
a 52 61 5
a 61 52 5
a 52 53 10
a 53 52 10
a 53 62 2
a 62 53 2
a 53 54 3
a 54 53 3
a 54 63 4
a 63 54 4
a 55 64 5
a 64 55 5
a 55 56 1
a 56 55 1
a 56 65 10
a 65 56 10
a 56 57 8
a 57 56 8
a 57 66 9
a 66 57 9
a 57 58 8
a 58 57 8
a 58 67 5
a 67 58 5
a 58 59 6
a 59 58 6
a 59 68 2
a 68 59 2
a 59 60 4
a 60 59 4
a 60 69 4
a 69 60 4
a 60 61 1
a 61 60 1
a 61 70 5
a 70 61 5
a 61 62 8
a 62 61 8
a 62 71 7
a 71 62 7
a 62 63 9
a 63 62 9
a 63 72 1
a 72 63 1
a 64 73 3
a 73 64 3
a 64 65 4
a 65 64 4
a 65 74 2
a 74 65 2
a 65 66 6
a 66 65 6
a 66 75 7
a 75 66 7
a 66 67 7
a 67 66 7
a 67 76 5
a 76 67 5
a 67 68 2
a 68 67 2
a 68 77 3
a 77 68 3
a 68 69 7
a 69 68 7
a 69 78 5
a 78 69 5
a 69 70 1
a 70 69 1
a 70 79 5
a 79 70 5
a 70 71 3
a 71 70 3
a 71 80 1
a 80 71 1
a 71 72 2
a 72 71 2
a 72 81 4
a 81 72 4
a 73 74 9
a 74 73 9
a 74 75 3
a 75 74 3
a 75 76 9
a 76 75 9
a 76 77 10
a 77 76 10
a 77 78 7
a 78 77 7
a 78 79 9
a 79 78 9
a 79 80 10
a 80 79 10
a 80 81 8
a 81 80 8
